40
399
20
20
71
38
35
2
83
85
40
6
76
20
2
19
19
63
60
31
71
80
98
0 3
0 4
0 5
0 9
0 10
0 12
0 13
0 19
0 20
0 21
0 22
0 25
0 26
0 28
0 31
0 32
0 34
0 35
0 37
0 39
1 2
1 3
1 5
1 6
1 7
1 8
1 14
1 15
1 16
1 17
1 18
1 19
1 20
1 21
1 25
1 28
1 33
1 34
1 36
1 37
1 39
2 3
2 7
2 8
2 9
2 10
2 11
2 12
2 14
2 15
2 17
2 20
2 21
2 23
2 26
2 28
2 30
2 31
2 34
2 35
2 37
2 38
3 5
3 7
3 13
3 14
3 19
3 22
3 25
3 26
3 28
3 33
3 37
4 7
4 9
4 10
4 13
4 14
4 15
4 16
4 17
4 19
4 21
4 24
4 27
4 30
4 33
4 38
4 39
5 8
5 9
5 11
5 16
5 17
5 18
5 19
5 21
5 22
5 23
5 24
5 25
5 26
5 30
5 32
5 34
6 8
6 9
6 10
6 11
6 13
6 14
6 16
6 18
6 20
6 21
6 22
6 24
6 27
6 28
6 29
6 30
6 31
6 32
6 33
6 35
6 37
7 8
7 11
7 12
7 13
7 15
7 16
7 17
7 18
7 22
7 23
7 24
7 25
7 26
7 27
7 30
7 32
7 35
7 36
7 37
7 39
8 14
8 18
8 19
8 21
8 22
8 23
8 25
8 27
8 28
8 29
8 32
8 33
9 10
9 14
9 16
9 18
9 19
9 22
9 24
9 26
9 27
9 28
9 31
9 33
9 34
9 35
9 36
9 37
9 38
10 11
10 18
10 19
10 20
10 26
10 28
10 31
10 32
10 33
10 34
10 35
10 37
10 38
10 39
11 12
11 13
11 18
11 20
11 21
11 22
11 23
11 26
11 28
11 29
11 30
11 31
11 33
11 35
11 37
11 39
12 13
12 14
12 15
12 17
12 24
12 25
12 26
12 27
12 28
12 30
12 31
12 33
12 35
12 37
12 38
12 39
13 14
13 15
13 16
13 18
13 19
13 20
13 21
13 24
13 26
13 28
13 31
13 32
13 34
13 35
13 36
13 37
14 15
14 17
14 18
14 19
14 20
14 24
14 25
14 26
14 29
14 32
14 35
14 36
14 37
14 38
14 39
15 18
15 19
15 20
15 23
15 24
15 25
15 27
15 29
15 30
15 32
15 33
15 34
15 36
15 37
15 38
15 39
16 17
16 18
16 20
16 21
16 22
16 23
16 24
16 25
16 27
16 28
16 29
16 30
16 31
16 33
16 34
16 35
17 18
17 19
17 23
17 24
17 25
17 27
17 29
17 31
17 33
17 36
17 37
18 19
18 20
18 22
18 23
18 26
18 27
18 35
18 36
19 20
19 21
19 22
19 27
19 32
19 34
19 35
19 36
19 37
20 21
20 22
20 27
20 28
20 30
20 32
21 23
21 30
21 31
21 36
21 37
21 39
22 23
22 24
22 28
22 32
22 34
22 35
22 36
22 39
23 26
23 29
23 30
23 31
23 32
23 35
23 37
23 38
23 39
24 25
24 27
24 28
24 33
24 34
24 38
24 39
25 28
25 29
25 30
25 32
25 36
25 37
26 27
26 29
26 32
26 33
26 34
26 35
26 37
27 29
27 30
27 31
27 35
27 36
27 37
27 38
27 39
28 30
28 31
28 33
28 35
28 36
28 37
29 30
29 31
29 32
30 31
30 32
30 39
31 35
31 36
31 37
31 38
32 33
32 34
32 35
32 37
32 39
33 37
34 37
34 38
35 36
35 37
35 38
36 38
37 38
38 39
10 38
17 15
9 16
24 33
21 30
3 36
0 20
13 5
12 19
26 11
29 32
39 14
28 18
4 31
2 1
35 25
37 7
23 8
27 6
34 22
